NAME          Slots selection
ROWS
 N  *OBJ*
 E  slot_43
 E  slot_42
 E  slot_41
 E  slot_40
 E  slot_39
 E  slot_38
 E  slot_37
 E  slot_36
 E  slot_35
 E  slot_34
 E  slot_33
 E  slot_32
 E  slot_31
 E  slot_30
 E  slot_29
 E  slot_28
 E  slot_27
 E  slot_26
 E  slot_25
 E  slot_24
 E  slot_23
 E  slot_22
 E  slot_21
 E  slot_20
 E  slot_19
 E  slot_18
 E  slot_17
 E  slot_16
 E  slot_15
 E  slot_14
 E  slot_13
 E  slot_12
 E  slot_11
 E  slot_10
 E  slot_9
 E  slot_8
 E  slot_7
 E  slot_6
 E  slot_5
 E  slot_4
 E  slot_3
 E  slot_2
 E  slot_1

COLUMNS
    WR_(0)    slot_1    1
    WR_(0)    *OBJ*     1e+006
    WR_(1)    slot_2    1
    WR_(1)    *OBJ*     1e+006
    WR_(2)    slot_3    1
    WR_(2)    *OBJ*     1e+006
    WR_(3)    slot_4    1
    WR_(3)    *OBJ*     1e+006
    WR_(4)    slot_5    1
    WR_(4)    *OBJ*     1e+006
    WR_(5)    slot_6    1
    WR_(5)    *OBJ*     1e+006
    WR_(6)    slot_7    1
    WR_(6)    *OBJ*     1e+006
    WR_(7)    slot_8    1
    WR_(7)    *OBJ*     1e+006
    WR_(8)    slot_9    1
    WR_(8)    *OBJ*     1e+006
    WR_(9)    slot_10   1
    WR_(9)    *OBJ*     1e+006
    WR_(10)   slot_11   1
    WR_(10)   *OBJ*     1e+006
    WR_(11)   slot_12   1
    WR_(11)   *OBJ*     1e+006
    WR_(12)   slot_13   1
    WR_(12)   *OBJ*     1e+006
    WR_(13)   slot_14   1
    WR_(13)   *OBJ*     1e+006
    WR_(14)   slot_15   1
    WR_(14)   *OBJ*     1e+006
    WR_(15)   slot_16   1
    WR_(15)   *OBJ*     1e+006
    WR_(16)   slot_17   1
    WR_(16)   *OBJ*     1e+006
    WR_(17)   slot_18   1
    WR_(17)   *OBJ*     1e+006
    WR_(18)   slot_19   1
    WR_(18)   *OBJ*     1e+006
    WR_(19)   slot_20   1
    WR_(19)   *OBJ*     1e+006
    WR_(20)   slot_21   1
    WR_(20)   *OBJ*     1e+006
    WR_(21)   slot_22   1
    WR_(21)   *OBJ*     1e+006
    WR_(22)   slot_23   1
    WR_(22)   *OBJ*     1e+006
    WR_(23)   slot_24   1
    WR_(23)   *OBJ*     1e+006
    WR_(24)   slot_25   1
    WR_(24)   *OBJ*     1e+006
    WR_(25)   slot_26   1
    WR_(25)   *OBJ*     1e+006
    WR_(26)   slot_27   1
    WR_(26)   *OBJ*     1e+006
    WR_(27)   slot_28   1
    WR_(27)   *OBJ*     1e+006
    WR_(28)   slot_29   1
    WR_(28)   *OBJ*     1e+006
    WR_(29)   slot_30   1
    WR_(29)   *OBJ*     1e+006
    WR_(30)   slot_31   1
    WR_(30)   *OBJ*     1e+006
    WR_(31)   slot_32   1
    WR_(31)   *OBJ*     1e+006
    WR_(32)   slot_33   1
    WR_(32)   *OBJ*     1e+006
    WR_(33)   slot_34   1
    WR_(33)   *OBJ*     1e+006
    WR_(34)   slot_35   1
    WR_(34)   *OBJ*     1e+006
    WR_(35)   slot_36   1
    WR_(35)   *OBJ*     1e+006
    WR_(36)   slot_37   1
    WR_(36)   *OBJ*     1e+006
    WR_(37)   slot_38   1
    WR_(37)   *OBJ*     1e+006
    WR_(38)   slot_39   1
    WR_(38)   *OBJ*     1e+006
    WR_(39)   slot_40   1
    WR_(39)   *OBJ*     1e+006
    WR_(40)   slot_41   1
    WR_(40)   *OBJ*     1e+006
    WR_(41)   slot_42   1
    WR_(41)   *OBJ*     1e+006
    WR_(42)   slot_43   1
    WR_(42)   *OBJ*     1e+006
    WR_(43)   slot_1    1
    WR_(43)   slot_3    1
    WR_(43)   *OBJ*     1
    WR_(44)   slot_2    1
    WR_(44)   slot_4    1
    WR_(44)   slot_9    1
    WR_(44)   slot_11   1
    WR_(44)   *OBJ*     19
    WR_(45)   slot_1    1
    WR_(45)   slot_3    1
    WR_(45)   *OBJ*     1
    WR_(46)   slot_4    1
    WR_(46)   slot_12   1
    WR_(46)   slot_14   1
    WR_(46)   *OBJ*     11
    WR_(47)   slot_5    1
    WR_(47)   slot_17   1
    WR_(47)   slot_26   1
    WR_(47)   *OBJ*     11
    WR_(48)   slot_6    1
    WR_(48)   slot_22   1
    WR_(48)   *OBJ*     5
    WR_(49)   slot_7    1
    WR_(49)   slot_13   1
    WR_(49)   slot_21   1
    WR_(49)   *OBJ*     19
    WR_(50)   slot_8    1
    WR_(50)   slot_13   1
    WR_(50)   slot_21   1
    WR_(50)   *OBJ*     17
    WR_(51)   slot_2    1
    WR_(51)   slot_4    1
    WR_(51)   slot_9    1
    WR_(51)   slot_33   1
    WR_(51)   *OBJ*     19
    WR_(52)   slot_10   1
    WR_(52)   slot_18   1
    WR_(52)   slot_24   1
    WR_(52)   *OBJ*     11
    WR_(53)   slot_2    1
    WR_(53)   slot_4    1
    WR_(53)   slot_9    1
    WR_(53)   slot_11   1
    WR_(53)   *OBJ*     19
    WR_(54)   slot_4    1
    WR_(54)   slot_12   1
    WR_(54)   slot_14   1
    WR_(54)   *OBJ*     19
    WR_(55)   slot_13   1
    WR_(55)   slot_27   1
    WR_(55)   slot_36   1
    WR_(55)   *OBJ*     15
    WR_(56)   slot_4    1
    WR_(56)   slot_12   1
    WR_(56)   slot_14   1
    WR_(56)   *OBJ*     19
    WR_(57)   slot_15   1
    WR_(57)   *OBJ*     1e+006
    WR_(58)   slot_16   1
    WR_(58)   slot_17   1
    WR_(58)   slot_26   1
    WR_(58)   *OBJ*     15
    WR_(59)   slot_17   1
    WR_(59)   slot_26   1
    WR_(59)   *OBJ*     6
    WR_(60)   slot_18   1
    WR_(60)   slot_24   1
    WR_(60)   *OBJ*     2
    WR_(61)   slot_19   1
    WR_(61)   slot_25   1
    WR_(61)   *OBJ*     8
    WR_(62)   slot_20   1
    WR_(62)   *OBJ*     1e+006
    WR_(63)   slot_8    1
    WR_(63)   slot_13   1
    WR_(63)   slot_21   1
    WR_(63)   slot_28   1
    WR_(63)   *OBJ*     19
    WR_(64)   slot_22   1
    WR_(64)   *OBJ*     1e+006
    WR_(65)   slot_23   1
    WR_(65)   *OBJ*     1e+006
    WR_(66)   slot_18   1
    WR_(66)   slot_24   1
    WR_(66)   *OBJ*     2
    WR_(67)   slot_19   1
    WR_(67)   slot_25   1
    WR_(67)   *OBJ*     8
    WR_(68)   slot_17   1
    WR_(68)   slot_26   1
    WR_(68)   *OBJ*     6
    WR_(69)   slot_27   1
    WR_(69)   *OBJ*     1e+006
    WR_(70)   slot_28   1
    WR_(70)   *OBJ*     1e+006
    WR_(71)   slot_29   1
    WR_(71)   *OBJ*     1e+006
    WR_(72)   slot_30   1
    WR_(72)   *OBJ*     1e+006
    WR_(73)   slot_19   1
    WR_(73)   slot_25   1
    WR_(73)   slot_31   1
    WR_(73)   *OBJ*     14
    WR_(74)   slot_32   1
    WR_(74)   *OBJ*     1e+006
    WR_(75)   slot_2    1
    WR_(75)   slot_4    1
    WR_(75)   slot_9    1
    WR_(75)   slot_11   1
    WR_(75)   slot_12   1
    WR_(75)   slot_14   1
    WR_(75)   slot_33   1
    WR_(75)   *OBJ*     18
    WR_(76)   slot_30   1
    WR_(76)   slot_34   1
    WR_(76)   *OBJ*     7
    WR_(77)   slot_16   1
    WR_(77)   slot_17   1
    WR_(77)   slot_35   1
    WR_(77)   *OBJ*     15
    WR_(78)   slot_13   1
    WR_(78)   slot_27   1
    WR_(78)   slot_36   1
    WR_(78)   *OBJ*     15
    WR_(79)   slot_37   1
    WR_(79)   *OBJ*     1e+006
    WR_(80)   slot_38   1
    WR_(80)   *OBJ*     1e+006
    WR_(81)   slot_39   1
    WR_(81)   *OBJ*     1e+006
    WR_(82)   slot_40   1
    WR_(82)   slot_41   1
    WR_(82)   *OBJ*     6
    WR_(83)   slot_40   1
    WR_(83)   slot_41   1
    WR_(83)   *OBJ*     6
    WR_(84)   slot_42   1
    WR_(84)   *OBJ*     1e+006
    WR_(85)   slot_43   1
    WR_(85)   *OBJ*     1e+006
    WR_(86)   slot_1    1
    WR_(86)   slot_3    1
    WR_(86)   *OBJ*     1
    WR_(87)   slot_2    1
    WR_(87)   slot_4    1
    WR_(87)   slot_9    1
    WR_(87)   slot_11   1
    WR_(87)   *OBJ*     19
    WR_(88)   slot_1    1
    WR_(88)   slot_3    1
    WR_(88)   *OBJ*     1
    WR_(89)   slot_4    1
    WR_(89)   slot_12   1
    WR_(89)   slot_14   1
    WR_(89)   *OBJ*     11
    WR_(90)   slot_5    1
    WR_(90)   slot_17   1
    WR_(90)   slot_26   1
    WR_(90)   *OBJ*     11
    WR_(91)   slot_6    1
    WR_(91)   slot_22   1
    WR_(91)   *OBJ*     5
    WR_(92)   slot_7    1
    WR_(92)   slot_13   1
    WR_(92)   slot_21   1
    WR_(92)   *OBJ*     19
    WR_(93)   slot_8    1
    WR_(93)   slot_13   1
    WR_(93)   slot_21   1
    WR_(93)   *OBJ*     17
    WR_(94)   slot_2    1
    WR_(94)   slot_4    1
    WR_(94)   slot_9    1
    WR_(94)   slot_33   1
    WR_(94)   *OBJ*     19
    WR_(95)   slot_10   1
    WR_(95)   slot_18   1
    WR_(95)   slot_24   1
    WR_(95)   *OBJ*     11
    WR_(96)   slot_2    1
    WR_(96)   slot_4    1
    WR_(96)   slot_9    1
    WR_(96)   slot_11   1
    WR_(96)   *OBJ*     19
    WR_(97)   slot_4    1
    WR_(97)   slot_12   1
    WR_(97)   slot_14   1
    WR_(97)   *OBJ*     19
    WR_(98)   slot_13   1
    WR_(98)   slot_27   1
    WR_(98)   slot_36   1
    WR_(98)   *OBJ*     15
    WR_(99)   slot_4    1
    WR_(99)   slot_12   1
    WR_(99)   slot_14   1
    WR_(99)   *OBJ*     19
    WR_(100)  slot_15   1
    WR_(100)  *OBJ*     1e+006
    WR_(101)  slot_16   1
    WR_(101)  slot_17   1
    WR_(101)  slot_26   1
    WR_(101)  *OBJ*     15
    WR_(102)  slot_17   1
    WR_(102)  slot_26   1
    WR_(102)  *OBJ*     6
    WR_(103)  slot_18   1
    WR_(103)  slot_24   1
    WR_(103)  *OBJ*     2
    WR_(104)  slot_19   1
    WR_(104)  slot_25   1
    WR_(104)  *OBJ*     8
    WR_(105)  slot_20   1
    WR_(105)  *OBJ*     1e+006
    WR_(106)  slot_8    1
    WR_(106)  slot_13   1
    WR_(106)  slot_21   1
    WR_(106)  slot_28   1
    WR_(106)  *OBJ*     19
    WR_(107)  slot_22   1
    WR_(107)  *OBJ*     1e+006
    WR_(108)  slot_23   1
    WR_(108)  *OBJ*     1e+006
    WR_(109)  slot_18   1
    WR_(109)  slot_24   1
    WR_(109)  *OBJ*     2
    WR_(110)  slot_19   1
    WR_(110)  slot_25   1
    WR_(110)  *OBJ*     8
    WR_(111)  slot_17   1
    WR_(111)  slot_26   1
    WR_(111)  *OBJ*     6
    WR_(112)  slot_27   1
    WR_(112)  *OBJ*     1e+006
    WR_(113)  slot_28   1
    WR_(113)  *OBJ*     1e+006
    WR_(114)  slot_29   1
    WR_(114)  *OBJ*     1e+006
    WR_(115)  slot_30   1
    WR_(115)  *OBJ*     1e+006
    WR_(116)  slot_19   1
    WR_(116)  slot_25   1
    WR_(116)  slot_31   1
    WR_(116)  *OBJ*     14
    WR_(117)  slot_32   1
    WR_(117)  *OBJ*     1e+006
    WR_(118)  slot_4    1
    WR_(118)  slot_9    1
    WR_(118)  slot_11   1
    WR_(118)  slot_12   1
    WR_(118)  slot_14   1
    WR_(118)  slot_33   1
    WR_(118)  *OBJ*     17
    WR_(119)  slot_30   1
    WR_(119)  slot_34   1
    WR_(119)  *OBJ*     7
    WR_(120)  slot_16   1
    WR_(120)  slot_17   1
    WR_(120)  slot_35   1
    WR_(120)  *OBJ*     15
    WR_(121)  slot_13   1
    WR_(121)  slot_27   1
    WR_(121)  slot_36   1
    WR_(121)  *OBJ*     15
    WR_(122)  slot_37   1
    WR_(122)  *OBJ*     1e+006
    WR_(123)  slot_38   1
    WR_(123)  *OBJ*     1e+006
    WR_(124)  slot_39   1
    WR_(124)  *OBJ*     1e+006
    WR_(125)  slot_40   1
    WR_(125)  slot_41   1
    WR_(125)  *OBJ*     6
    WR_(126)  slot_40   1
    WR_(126)  slot_41   1
    WR_(126)  *OBJ*     6
    WR_(127)  slot_42   1
    WR_(127)  *OBJ*     1e+006
    WR_(128)  slot_43   1
    WR_(128)  *OBJ*     1e+006
    WR_(129)  slot_1    1
    WR_(129)  *OBJ*     1e+006
    WR_(130)  slot_2    1
    WR_(130)  *OBJ*     1e+006
    WR_(131)  slot_3    1
    WR_(131)  *OBJ*     1e+006
    WR_(132)  slot_4    1
    WR_(132)  *OBJ*     1e+006
    WR_(133)  slot_5    1
    WR_(133)  *OBJ*     1e+006
    WR_(134)  slot_6    1
    WR_(134)  *OBJ*     1e+006
    WR_(135)  slot_7    1
    WR_(135)  *OBJ*     1e+006
    WR_(136)  slot_8    1
    WR_(136)  *OBJ*     1e+006
    WR_(137)  slot_9    1
    WR_(137)  *OBJ*     1e+006
    WR_(138)  slot_10   1
    WR_(138)  *OBJ*     1e+006
    WR_(139)  slot_11   1
    WR_(139)  *OBJ*     1e+006
    WR_(140)  slot_12   1
    WR_(140)  *OBJ*     1e+006
    WR_(141)  slot_13   1
    WR_(141)  *OBJ*     1e+006
    WR_(142)  slot_14   1
    WR_(142)  *OBJ*     1e+006
    WR_(143)  slot_15   1
    WR_(143)  *OBJ*     1e+006
    WR_(144)  slot_16   1
    WR_(144)  *OBJ*     1e+006
    WR_(145)  slot_17   1
    WR_(145)  *OBJ*     1e+006
    WR_(146)  slot_18   1
    WR_(146)  *OBJ*     1e+006
    WR_(147)  slot_19   1
    WR_(147)  *OBJ*     1e+006
    WR_(148)  slot_20   1
    WR_(148)  *OBJ*     1e+006
    WR_(149)  slot_21   1
    WR_(149)  *OBJ*     1e+006
    WR_(150)  slot_22   1
    WR_(150)  *OBJ*     1e+006
    WR_(151)  slot_23   1
    WR_(151)  *OBJ*     1e+006
    WR_(152)  slot_24   1
    WR_(152)  *OBJ*     1e+006
    WR_(153)  slot_25   1
    WR_(153)  *OBJ*     1e+006
    WR_(154)  slot_26   1
    WR_(154)  *OBJ*     1e+006
    WR_(155)  slot_27   1
    WR_(155)  *OBJ*     1e+006
    WR_(156)  slot_28   1
    WR_(156)  *OBJ*     1e+006
    WR_(157)  slot_29   1
    WR_(157)  *OBJ*     1e+006
    WR_(158)  slot_30   1
    WR_(158)  *OBJ*     1e+006
    WR_(159)  slot_31   1
    WR_(159)  *OBJ*     1e+006
    WR_(160)  slot_32   1
    WR_(160)  *OBJ*     1e+006
    WR_(161)  slot_33   1
    WR_(161)  *OBJ*     1e+006
    WR_(162)  slot_34   1
    WR_(162)  *OBJ*     1e+006
    WR_(163)  slot_35   1
    WR_(163)  *OBJ*     1e+006
    WR_(164)  slot_36   1
    WR_(164)  *OBJ*     1e+006
    WR_(165)  slot_37   1
    WR_(165)  *OBJ*     1e+006
    WR_(166)  slot_38   1
    WR_(166)  *OBJ*     1e+006
    WR_(167)  slot_39   1
    WR_(167)  *OBJ*     1e+006
    WR_(168)  slot_40   1
    WR_(168)  *OBJ*     1e+006
    WR_(169)  slot_41   1
    WR_(169)  *OBJ*     1e+006
    WR_(170)  slot_42   1
    WR_(170)  *OBJ*     1e+006
    WR_(171)  slot_43   1
    WR_(171)  *OBJ*     1e+006

RHS
    *RHS*     slot_43   1
    *RHS*     slot_42   1
    *RHS*     slot_41   1
    *RHS*     slot_40   1
    *RHS*     slot_39   1
    *RHS*     slot_38   1
    *RHS*     slot_37   1
    *RHS*     slot_36   1
    *RHS*     slot_35   1
    *RHS*     slot_34   1
    *RHS*     slot_33   1
    *RHS*     slot_32   1
    *RHS*     slot_31   1
    *RHS*     slot_30   1
    *RHS*     slot_29   1
    *RHS*     slot_28   1
    *RHS*     slot_27   1
    *RHS*     slot_26   1
    *RHS*     slot_25   1
    *RHS*     slot_24   1
    *RHS*     slot_23   1
    *RHS*     slot_22   1
    *RHS*     slot_21   1
    *RHS*     slot_20   1
    *RHS*     slot_19   1
    *RHS*     slot_18   1
    *RHS*     slot_17   1
    *RHS*     slot_16   1
    *RHS*     slot_15   1
    *RHS*     slot_14   1
    *RHS*     slot_13   1
    *RHS*     slot_12   1
    *RHS*     slot_11   1
    *RHS*     slot_10   1
    *RHS*     slot_9    1
    *RHS*     slot_8    1
    *RHS*     slot_7    1
    *RHS*     slot_6    1
    *RHS*     slot_5    1
    *RHS*     slot_4    1
    *RHS*     slot_3    1
    *RHS*     slot_2    1
    *RHS*     slot_1    1

BOUNDS
 BV *BND*     WR_(0)
 BV *BND*     WR_(1)
 BV *BND*     WR_(2)
 BV *BND*     WR_(3)
 BV *BND*     WR_(4)
 BV *BND*     WR_(5)
 BV *BND*     WR_(6)
 BV *BND*     WR_(7)
 BV *BND*     WR_(8)
 BV *BND*     WR_(9)
 BV *BND*     WR_(10)
 BV *BND*     WR_(11)
 BV *BND*     WR_(12)
 BV *BND*     WR_(13)
 BV *BND*     WR_(14)
 BV *BND*     WR_(15)
 BV *BND*     WR_(16)
 BV *BND*     WR_(17)
 BV *BND*     WR_(18)
 BV *BND*     WR_(19)
 BV *BND*     WR_(20)
 BV *BND*     WR_(21)
 BV *BND*     WR_(22)
 BV *BND*     WR_(23)
 BV *BND*     WR_(24)
 BV *BND*     WR_(25)
 BV *BND*     WR_(26)
 BV *BND*     WR_(27)
 BV *BND*     WR_(28)
 BV *BND*     WR_(29)
 BV *BND*     WR_(30)
 BV *BND*     WR_(31)
 BV *BND*     WR_(32)
 BV *BND*     WR_(33)
 BV *BND*     WR_(34)
 BV *BND*     WR_(35)
 BV *BND*     WR_(36)
 BV *BND*     WR_(37)
 BV *BND*     WR_(38)
 BV *BND*     WR_(39)
 BV *BND*     WR_(40)
 BV *BND*     WR_(41)
 BV *BND*     WR_(42)
 BV *BND*     WR_(43)
 BV *BND*     WR_(44)
 BV *BND*     WR_(45)
 BV *BND*     WR_(46)
 BV *BND*     WR_(47)
 BV *BND*     WR_(48)
 BV *BND*     WR_(49)
 BV *BND*     WR_(50)
 BV *BND*     WR_(51)
 BV *BND*     WR_(52)
 BV *BND*     WR_(53)
 BV *BND*     WR_(54)
 BV *BND*     WR_(55)
 BV *BND*     WR_(56)
 BV *BND*     WR_(57)
 BV *BND*     WR_(58)
 BV *BND*     WR_(59)
 BV *BND*     WR_(60)
 BV *BND*     WR_(61)
 BV *BND*     WR_(62)
 BV *BND*     WR_(63)
 BV *BND*     WR_(64)
 BV *BND*     WR_(65)
 BV *BND*     WR_(66)
 BV *BND*     WR_(67)
 BV *BND*     WR_(68)
 BV *BND*     WR_(69)
 BV *BND*     WR_(70)
 BV *BND*     WR_(71)
 BV *BND*     WR_(72)
 BV *BND*     WR_(73)
 BV *BND*     WR_(74)
 BV *BND*     WR_(75)
 BV *BND*     WR_(76)
 BV *BND*     WR_(77)
 BV *BND*     WR_(78)
 BV *BND*     WR_(79)
 BV *BND*     WR_(80)
 BV *BND*     WR_(81)
 BV *BND*     WR_(82)
 BV *BND*     WR_(83)
 BV *BND*     WR_(84)
 BV *BND*     WR_(85)
 BV *BND*     WR_(86)
 BV *BND*     WR_(87)
 BV *BND*     WR_(88)
 BV *BND*     WR_(89)
 BV *BND*     WR_(90)
 BV *BND*     WR_(91)
 BV *BND*     WR_(92)
 BV *BND*     WR_(93)
 BV *BND*     WR_(94)
 BV *BND*     WR_(95)
 BV *BND*     WR_(96)
 BV *BND*     WR_(97)
 BV *BND*     WR_(98)
 BV *BND*     WR_(99)
 BV *BND*     WR_(100)
 BV *BND*     WR_(101)
 BV *BND*     WR_(102)
 BV *BND*     WR_(103)
 BV *BND*     WR_(104)
 BV *BND*     WR_(105)
 BV *BND*     WR_(106)
 BV *BND*     WR_(107)
 BV *BND*     WR_(108)
 BV *BND*     WR_(109)
 BV *BND*     WR_(110)
 BV *BND*     WR_(111)
 BV *BND*     WR_(112)
 BV *BND*     WR_(113)
 BV *BND*     WR_(114)
 BV *BND*     WR_(115)
 BV *BND*     WR_(116)
 BV *BND*     WR_(117)
 BV *BND*     WR_(118)
 BV *BND*     WR_(119)
 BV *BND*     WR_(120)
 BV *BND*     WR_(121)
 BV *BND*     WR_(122)
 BV *BND*     WR_(123)
 BV *BND*     WR_(124)
 BV *BND*     WR_(125)
 BV *BND*     WR_(126)
 BV *BND*     WR_(127)
 BV *BND*     WR_(128)
 BV *BND*     WR_(129)
 BV *BND*     WR_(130)
 BV *BND*     WR_(131)
 BV *BND*     WR_(132)
 BV *BND*     WR_(133)
 BV *BND*     WR_(134)
 BV *BND*     WR_(135)
 BV *BND*     WR_(136)
 BV *BND*     WR_(137)
 BV *BND*     WR_(138)
 BV *BND*     WR_(139)
 BV *BND*     WR_(140)
 BV *BND*     WR_(141)
 BV *BND*     WR_(142)
 BV *BND*     WR_(143)
 BV *BND*     WR_(144)
 BV *BND*     WR_(145)
 BV *BND*     WR_(146)
 BV *BND*     WR_(147)
 BV *BND*     WR_(148)
 BV *BND*     WR_(149)
 BV *BND*     WR_(150)
 BV *BND*     WR_(151)
 BV *BND*     WR_(152)
 BV *BND*     WR_(153)
 BV *BND*     WR_(154)
 BV *BND*     WR_(155)
 BV *BND*     WR_(156)
 BV *BND*     WR_(157)
 BV *BND*     WR_(158)
 BV *BND*     WR_(159)
 BV *BND*     WR_(160)
 BV *BND*     WR_(161)
 BV *BND*     WR_(162)
 BV *BND*     WR_(163)
 BV *BND*     WR_(164)
 BV *BND*     WR_(165)
 BV *BND*     WR_(166)
 BV *BND*     WR_(167)
 BV *BND*     WR_(168)
 BV *BND*     WR_(169)
 BV *BND*     WR_(170)
 BV *BND*     WR_(171)

ENDATA
